c Generated by CellRouter, look at JSON variable remapping
p cnf 200 1378
-82 -147 0 
-31 -130 0 
-175 -128 0 
-133 -102 0 
-110 -111 0 
-97 -200 0 
-160 -94 0 
-23 -73 0 
-25 -196 0 
-74 -131 0 
-78 -39 0 
-154 -61 0 
-66 0 
47 0 
-166 -140 0 
-95 -199 0 
-169 -69 0 
-167 -93 0 
-123 -15 0 
-7 -44 0 
-170 -4 0 
-192 -84 0 
-35 -13 0 
-50 -45 0 
-172 -36 0 
-136 -37 0 
-146 -156 0 
-54 -188 0 
-179 -180 0 
-116 -26 0 
-120 -89 0 
-67 -117 0 
-168 -193 0 
-42 -2 0 
-11 -43 0 
-159 -33 0 
-100 -58 0 
-80 -17 0 
-151 -122 0 
-187 -165 0 
-163 -125 0 
-174 -55 0 
28 0 
-68 0 
-194 -76 0 
-157 -108 0 
-77 -190 0 
-99 -176 0 
-152 -139 0 
-138 -32 0 
-48 -185 0 
-195 -144 0 
-104 -105 0 
-153 -150 0 
-22 -10 0 
-19 -72 0 
-64 -161 0 
-1 -98 0 
-63 -178 0 
-106 -86 0 
-85 -112 0 
-145 -127 0 
-75 -30 0 
-6 -143 0 
-21 -29 0 
-101 -96 0 
87 0 
-191 0 
-56 -27 0 
-135 -182 0 
-114 -8 0 
-115 -60 0 
-109 -59 0 
-79 -70 0 
-90 -91 0 
-51 -113 0 
-171 -18 0 
-119 -118 0 
-81 -129 0 
-3 -71 0 
-173 -107 0 
-198 -49 0 
-16 -132 0 
-14 -121 0 
-148 -62 0 
-162 -124 0 
-53 -40 0 
-186 -20 0 
-134 -164 0 
-41 -46 0 
-149 -183 0 
-142 -65 0 
-189 -141 0 
-103 0 
197 0 
-155 -83 0 
-12 -9 0 
-24 -184 0 
-137 -126 0 
-181 -5 0 
-158 -88 0 
-52 -177 0 
-57 -92 0 
-38 -34 0 
-82 181 16 77 0 
-82 24 16 77 0 
-82 24 181 77 0 
-82 24 181 16 0 
-82 -181 -16 -77 0 
-82 -24 -16 -77 0 
-82 -24 -181 -77 0 
-82 -24 -181 -16 0 
-147 5 132 190 0 
-147 184 132 190 0 
-147 184 5 190 0 
-147 184 5 132 0 
-147 -5 -132 -190 0 
-147 -184 -132 -190 0 
-147 -184 -5 -190 0 
-147 -184 -5 -132 0 
-31 63 97 0 
-31 170 97 0 
-31 170 63 0 
-31 -170 -63 -97 0 
-130 178 200 0 
-130 4 200 0 
-130 4 178 0 
-130 -4 -178 -200 0 
-175 106 51 0 
-175 101 51 0 
-175 101 106 0 
-175 -101 -106 -51 0 
-128 86 113 0 
-128 96 113 0 
-128 96 86 0 
-128 -96 -86 -113 0 
-133 134 38 6 0 
-133 66 38 6 0 
-133 66 134 6 0 
-133 66 134 38 0 
-133 -134 -38 -6 0 
-133 -66 -38 -6 0 
-133 -66 -134 -6 0 
-133 -66 -134 -38 0 
-102 164 34 143 0 
-102 47 34 143 0 
-102 47 164 143 0 
-102 47 164 34 0 
-102 -164 -34 -143 0 
-102 -47 -34 -143 0 
-102 -47 -164 -143 0 
-102 -47 -164 -34 0 
-110 81 173 0 
-110 67 173 0 
-110 67 81 0 
-110 -67 -81 -173 0 
-111 129 107 0 
-111 117 107 0 
-111 117 129 0 
-111 -117 -129 -107 0 
-97 31 115 52 0 
-97 7 115 52 0 
-97 7 31 52 0 
-97 7 31 115 0 
-97 -31 -115 -52 0 
-97 -7 -115 -52 0 
-97 -7 -31 -52 0 
-97 -7 -31 -115 0 
-200 130 60 177 0 
-200 44 60 177 0 
-200 44 130 177 0 
-200 44 130 60 0 
-200 -130 -60 -177 0 
-200 -44 -60 -177 0 
-200 -44 -130 -177 0 
-200 -44 -130 -60 0 
-160 119 48 120 0 
-160 23 48 120 0 
-160 23 119 120 0 
-160 23 119 48 0 
-160 -119 -48 -120 0 
-160 -23 -48 -120 0 
-160 -23 -119 -120 0 
-160 -23 -119 -48 0 
-94 118 185 89 0 
-94 73 185 89 0 
-94 73 118 89 0 
-94 73 118 185 0 
-94 -118 -185 -89 0 
-94 -73 -185 -89 0 
-94 -73 -118 -89 0 
-94 -73 -118 -185 0 
-23 171 160 167 0 
-23 35 160 167 0 
-23 35 171 167 0 
-23 35 171 160 0 
-23 -171 -160 -167 0 
-23 -35 -160 -167 0 
-23 -35 -171 -167 0 
-23 -35 -171 -160 0 
-73 18 94 93 0 
-73 13 94 93 0 
-73 13 18 93 0 
-73 13 18 94 0 
-73 -18 -94 -93 0 
-73 -13 -94 -93 0 
-73 -13 -18 -93 0 
-73 -13 -18 -94 0 
-25 148 53 192 0 
-25 159 53 192 0 
-25 159 148 192 0 
-25 159 148 53 0 
-25 -148 -53 -192 0 
-25 -159 -53 -192 0 
-25 -159 -148 -192 0 
-25 -159 -148 -53 0 
-196 62 40 84 0 
-196 33 40 84 0 
-196 33 62 84 0 
-196 33 62 40 0 
-196 -62 -40 -84 0 
-196 -33 -40 -84 0 
-196 -33 -62 -84 0 
-196 -33 -62 -40 0 
-74 38 104 172 0 
-74 6 104 172 0 
-74 6 38 172 0 
-74 6 38 104 0 
-74 -38 -104 -172 0 
-74 -6 -104 -172 0 
-74 -6 -38 -172 0 
-74 -6 -38 -104 0 
-131 34 105 36 0 
-131 143 105 36 0 
-131 143 34 36 0 
-131 143 34 105 0 
-131 -34 -105 -36 0 
-131 -143 -105 -36 0 
-131 -143 -34 -36 0 
-131 -143 -34 -105 0 
-78 11 195 0 
-78 41 195 0 
-78 41 11 0 
-78 -41 -11 -195 0 
-39 43 144 0 
-39 46 144 0 
-39 46 43 0 
-39 -46 -43 -144 0 
-154 99 134 66 0 
-154 95 134 66 0 
-154 95 99 66 0 
-154 95 99 134 0 
-154 -99 -134 -66 0 
-154 -95 -134 -66 0 
-154 -95 -99 -66 0 
-154 -95 -99 -134 0 
-61 176 164 47 0 
-61 199 164 47 0 
-61 199 176 47 0 
-61 199 176 164 0 
-61 -176 -164 -47 0 
-61 -199 -164 -47 0 
-61 -199 -176 -47 0 
-61 -199 -176 -164 0 
140 61 102 118 0 
-102 -118 0 
-61 -118 0 
-61 -102 0 
-140 -118 0 
-140 -102 0 
-140 -61 0 
-166 95 66 171 0 
-166 152 66 171 0 
-166 152 95 171 0 
-166 152 95 66 0 
-166 -95 -66 -171 0 
-166 -152 -66 -171 0 
-166 -152 -95 -171 0 
-166 -152 -95 -66 0 
-140 199 47 18 0 
-140 139 47 18 0 
-140 139 199 18 0 
-140 139 199 47 0 
-140 -199 -47 -18 0 
-140 -139 -47 -18 0 
-140 -139 -199 -18 0 
-140 -139 -199 -47 0 
-95 16 154 166 0 
-95 77 154 166 0 
-95 77 16 166 0 
-95 77 16 154 0 
-95 -16 -154 -166 0 
-95 -77 -154 -166 0 
-95 -77 -16 -166 0 
-95 -77 -16 -154 0 
-199 132 61 140 0 
-199 190 61 140 0 
-199 190 132 140 0 
-199 190 132 61 0 
-199 -132 -61 -140 0 
-199 -190 -61 -140 0 
-199 -190 -132 -140 0 
-199 -190 -132 -61 0 
-169 155 22 0 
-169 195 22 0 
-169 195 155 0 
-169 -195 -155 -22 0 
-69 83 10 0 
-69 144 10 0 
-69 144 83 0 
-69 -144 -83 -10 0 
-167 23 120 21 0 
-167 163 120 21 0 
-167 163 23 21 0 
-167 163 23 120 0 
-167 -23 -120 -21 0 
-167 -163 -120 -21 0 
-167 -163 -23 -21 0 
-167 -163 -23 -120 0 
-93 73 89 29 0 
-93 125 89 29 0 
-93 125 73 29 0 
-93 125 73 89 0 
-93 -73 -89 -29 0 
-93 -125 -89 -29 0 
-93 -125 -73 -29 0 
-93 -125 -73 -89 0 
-123 85 181 24 0 
-123 157 181 24 0 
-123 157 85 24 0 
-123 157 85 181 0 
-123 -85 -181 -24 0 
-123 -157 -181 -24 0 
-123 -157 -85 -24 0 
-123 -157 -85 -181 0 
-15 112 5 184 0 
-15 108 5 184 0 
-15 108 112 184 0 
-15 108 112 5 0 
-15 -112 -5 -184 0 
-15 -108 -5 -184 0 
-15 -108 -112 -184 0 
-15 -108 -112 -5 0 
-7 170 97 12 0 
-7 114 97 12 0 
-7 114 170 12 0 
-7 114 170 97 0 
-7 -170 -97 -12 0 
-7 -114 -97 -12 0 
-7 -114 -170 -12 0 
-7 -114 -170 -97 0 
-44 4 200 9 0 
-44 8 200 9 0 
-44 8 4 9 0 
-44 8 4 200 0 
-44 -4 -200 -9 0 
-44 -8 -200 -9 0 
-44 -8 -4 -9 0 
-44 -8 -4 -200 0 
-170 31 7 0 
-170 79 7 0 
-170 79 31 0 
-170 -79 -31 -7 0 
-4 130 44 0 
-4 70 44 0 
-4 70 130 0 
-4 -70 -130 -44 0 
-192 25 67 104 0 
-192 38 67 104 0 
-192 38 25 104 0 
-192 38 25 67 0 
-192 -25 -67 -104 0 
-192 -38 -67 -104 0 
-192 -38 -25 -104 0 
-192 -38 -25 -67 0 
-84 196 117 105 0 
-84 34 117 105 0 
-84 34 196 105 0 
-84 34 196 117 0 
-84 -196 -117 -105 0 
-84 -34 -117 -105 0 
-84 -34 -196 -105 0 
-84 -34 -196 -117 0 
-35 136 23 163 0 
-35 155 23 163 0 
-35 155 136 163 0 
-35 155 136 23 0 
-35 -136 -23 -163 0 
-35 -155 -23 -163 0 
-35 -155 -136 -163 0 
-35 -155 -136 -23 0 
-13 37 73 125 0 
-13 83 73 125 0 
-13 83 37 125 0 
-13 83 37 73 0 
-13 -37 -73 -125 0 
-13 -83 -73 -125 0 
-13 -83 -37 -125 0 
-13 -83 -37 -73 0 
-50 194 64 0 
-50 186 64 0 
-50 186 194 0 
-50 -186 -194 -64 0 
-45 76 161 0 
-45 20 161 0 
-45 20 76 0 
-45 -20 -76 -161 0 
-172 74 135 198 0 
-172 48 135 198 0 
-172 48 74 198 0 
-172 48 74 135 0 
-172 -74 -135 -198 0 
-172 -48 -135 -198 0 
-172 -48 -74 -198 0 
-172 -48 -74 -135 0 
-36 131 182 49 0 
-36 185 182 49 0 
-36 185 131 49 0 
-36 185 131 182 0 
-36 -131 -182 -49 0 
-36 -185 -182 -49 0 
-36 -185 -131 -49 0 
-36 -185 -131 -182 0 
-136 152 171 35 0 
-136 142 171 35 0 
-136 142 152 35 0 
-136 142 152 171 0 
-136 -152 -171 -35 0 
-136 -142 -171 -35 0 
-136 -142 -152 -35 0 
-136 -142 -152 -171 0 
-37 139 18 13 0 
-37 65 18 13 0 
-37 65 139 13 0 
-37 65 139 18 0 
-37 -139 -18 -13 0 
-37 -65 -18 -13 0 
-37 -65 -139 -13 0 
-37 -65 -139 -18 0 
-146 75 114 16 0 
-146 181 114 16 0 
-146 181 75 16 0 
-146 181 75 114 0 
-146 -75 -114 -16 0 
-146 -181 -114 -16 0 
-146 -181 -75 -16 0 
-146 -181 -75 -114 0 
-156 30 8 132 0 
-156 5 8 132 0 
-156 5 30 132 0 
-156 5 30 8 0 
-156 -30 -8 -132 0 
-156 -5 -8 -132 0 
-156 -5 -30 -132 0 
-156 -5 -30 -8 0 
-54 120 106 101 0 
-54 21 106 101 0 
-54 21 120 101 0 
-54 21 120 106 0 
-54 -120 -106 -101 0 
-54 -21 -106 -101 0 
-54 -21 -120 -101 0 
-54 -21 -120 -106 0 
-188 89 86 96 0 
-188 29 86 96 0 
-188 29 89 96 0 
-188 29 89 86 0 
-188 -89 -86 -96 0 
-188 -29 -86 -96 0 
-188 -29 -89 -96 0 
-188 -29 -89 -86 0 
-179 163 21 100 0 
-179 57 21 100 0 
-179 57 163 100 0 
-179 57 163 21 0 
-179 -163 -21 -100 0 
-179 -57 -21 -100 0 
-179 -57 -163 -100 0 
-179 -57 -163 -21 0 
-180 125 29 58 0 
-180 92 29 58 0 
-180 92 125 58 0 
-180 92 125 29 0 
-180 -125 -29 -58 0 
-180 -92 -29 -58 0 
-180 -92 -125 -58 0 
-180 -92 -125 -29 0 
-116 67 173 138 0 
-116 104 173 138 0 
-116 104 67 138 0 
-116 104 67 173 0 
-116 -67 -173 -138 0 
-116 -104 -173 -138 0 
-116 -104 -67 -138 0 
-116 -104 -67 -173 0 
-26 117 107 32 0 
-26 105 107 32 0 
-26 105 117 32 0 
-26 105 117 107 0 
-26 -117 -107 -32 0 
-26 -105 -107 -32 0 
-26 -105 -117 -32 0 
-26 -105 -117 -107 0 
-120 160 103 54 0 
-120 167 103 54 0 
-120 167 160 54 0 
-120 167 160 103 0 
-120 -160 -103 -54 0 
-120 -167 -103 -54 0 
-120 -167 -160 -54 0 
-120 -167 -160 -103 0 
-89 94 197 188 0 
-89 93 197 188 0 
-89 93 94 188 0 
-89 93 94 197 0 
-89 -94 -197 -188 0 
-89 -93 -197 -188 0 
-89 -93 -94 -188 0 
-89 -93 -94 -197 0 
-67 53 110 116 0 
-67 192 110 116 0 
-67 192 53 116 0 
-67 192 53 110 0 
-67 -53 -110 -116 0 
-67 -192 -110 -116 0 
-67 -192 -53 -116 0 
-67 -192 -53 -110 0 
-117 40 111 26 0 
-117 84 111 26 0 
-117 84 40 26 0 
-117 84 40 111 0 
-117 -40 -111 -26 0 
-117 -84 -111 -26 0 
-117 -84 -40 -26 0 
-117 -84 -40 -111 0 
-168 109 187 0 
-168 189 187 0 
-168 189 109 0 
-168 -189 -109 -187 0 
-193 59 165 0 
-193 141 165 0 
-193 141 59 0 
-193 -141 -59 -165 0 
-42 24 77 11 0 
-42 41 77 11 0 
-42 41 24 11 0 
-42 41 24 77 0 
-42 -24 -77 -11 0 
-42 -41 -77 -11 0 
-42 -41 -24 -11 0 
-42 -41 -24 -77 0 
-2 184 190 43 0 
-2 46 190 43 0 
-2 46 184 43 0 
-2 46 184 190 0 
-2 -184 -190 -43 0 
-2 -46 -190 -43 0 
-2 -46 -184 -43 0 
-2 -46 -184 -190 0 
-11 42 152 142 0 
-11 78 152 142 0 
-11 78 42 142 0 
-11 78 42 152 0 
-11 -42 -152 -142 0 
-11 -78 -152 -142 0 
-11 -78 -42 -142 0 
-11 -78 -42 -152 0 
-43 2 139 65 0 
-43 39 139 65 0 
-43 39 2 65 0 
-43 39 2 139 0 
-43 -2 -139 -65 0 
-43 -39 -139 -65 0 
-43 -39 -2 -65 0 
-43 -39 -2 -139 0 
-159 52 25 38 0 
-159 134 25 38 0 
-159 134 52 38 0 
-159 134 52 25 0 
-159 -52 -25 -38 0 
-159 -134 -25 -38 0 
-159 -134 -52 -38 0 
-159 -134 -52 -25 0 
-33 177 196 34 0 
-33 164 196 34 0 
-33 164 177 34 0 
-33 164 177 196 0 
-33 -177 -196 -34 0 
-33 -164 -196 -34 0 
-33 -164 -177 -34 0 
-33 -164 -177 -196 0 
-100 179 162 0 
-100 158 162 0 
-100 158 179 0 
-100 -158 -179 -162 0 
-58 180 124 0 
-58 88 124 0 
-58 88 180 0 
-58 -88 -180 -124 0 
-80 19 3 53 0 
-80 148 3 53 0 
-80 148 19 53 0 
-80 148 19 3 0 
-80 -19 -3 -53 0 
-80 -148 -3 -53 0 
-80 -148 -19 -53 0 
-80 -148 -19 -3 0 
-17 72 71 40 0 
-17 62 71 40 0 
-17 62 72 40 0 
-17 62 72 71 0 
-17 -72 -71 -40 0 
-17 -62 -71 -40 0 
-17 -62 -72 -40 0 
-17 -62 -72 -71 0 
-151 24 41 0 
-151 157 41 0 
-151 157 24 0 
-151 -157 -24 -41 0 
-122 184 46 0 
-122 108 46 0 
-122 108 184 0 
-122 -108 -184 -46 0 
-187 64 0 
-187 168 0 
-165 161 0 
-165 193 0 
-163 35 167 179 0 
-163 1 167 179 0 
-163 1 35 179 0 
-163 1 35 167 0 
-163 -35 -167 -179 0 
-163 -1 -167 -179 0 
-163 -1 -35 -179 0 
-163 -1 -35 -167 0 
-125 13 93 180 0 
-125 98 93 180 0 
-125 98 13 180 0 
-125 98 13 93 0 
-125 -13 -93 -180 0 
-125 -98 -93 -180 0 
-125 -98 -13 -180 0 
-125 -98 -13 -93 0 
-174 137 0 
-174 56 0 
-55 126 0 
-55 27 0 
85 157 0 
-85 -157 0 
-194 173 50 0 
-194 138 50 0 
-194 138 173 0 
-194 -138 -173 -50 0 
-76 107 45 0 
-76 32 45 0 
-76 32 107 0 
-76 -32 -107 -45 0 
-157 123 151 0 
-157 28 151 0 
-157 28 123 0 
-157 -28 -123 -151 0 
-108 15 122 0 
-108 68 122 0 
-108 68 15 0 
-108 -68 -15 -122 0 
-77 82 95 152 0 
-77 42 95 152 0 
-77 42 82 152 0 
-77 42 82 95 0 
-77 -82 -95 -152 0 
-77 -42 -95 -152 0 
-77 -42 -82 -152 0 
-77 -42 -82 -95 0 
-190 147 199 139 0 
-190 2 199 139 0 
-190 2 147 139 0 
-190 2 147 199 0 
-190 -147 -199 -139 0 
-190 -2 -199 -139 0 
-190 -2 -147 -139 0 
-190 -2 -147 -199 0 
-99 114 12 154 0 
-99 16 12 154 0 
-99 16 114 154 0 
-99 16 114 12 0 
-99 -114 -12 -154 0 
-99 -16 -12 -154 0 
-99 -16 -114 -154 0 
-99 -16 -114 -12 0 
-176 8 9 61 0 
-176 132 9 61 0 
-176 132 8 61 0 
-176 132 8 9 0 
-176 -8 -9 -61 0 
-176 -132 -9 -61 0 
-176 -132 -8 -61 0 
-176 -132 -8 -9 0 
-152 77 166 136 0 
-152 11 166 136 0 
-152 11 77 136 0 
-152 11 77 166 0 
-152 -77 -166 -136 0 
-152 -11 -166 -136 0 
-152 -11 -77 -136 0 
-152 -11 -77 -166 0 
-139 190 140 37 0 
-139 43 140 37 0 
-139 43 190 37 0 
-139 43 190 140 0 
-139 -190 -140 -37 0 
-139 -43 -140 -37 0 
-139 -43 -190 -37 0 
-139 -43 -190 -140 0 
-138 116 194 186 0 
-138 135 194 186 0 
-138 135 116 186 0 
-138 135 116 194 0 
-138 -116 -194 -186 0 
-138 -135 -194 -186 0 
-138 -135 -116 -186 0 
-138 -135 -116 -194 0 
-32 26 76 20 0 
-32 182 76 20 0 
-32 182 26 20 0 
-32 182 26 76 0 
-32 -26 -76 -20 0 
-32 -182 -76 -20 0 
-32 -182 -26 -20 0 
-32 -182 -26 -76 0 
-48 6 172 103 0 
-48 160 172 103 0 
-48 160 6 103 0 
-48 160 6 172 0 
-48 -6 -172 -103 0 
-48 -160 -172 -103 0 
-48 -160 -6 -103 0 
-48 -160 -6 -172 0 
-185 143 36 197 0 
-185 94 36 197 0 
-185 94 143 197 0 
-185 94 143 36 0 
-185 -143 -36 -197 0 
-185 -94 -36 -197 0 
-185 -94 -143 -197 0 
-185 -94 -143 -36 0 
-195 142 169 0 
-195 78 169 0 
-195 78 142 0 
-195 -78 -142 -169 0 
-144 65 69 0 
-144 39 69 0 
-144 39 65 0 
-144 -39 -65 -69 0 
-104 192 116 135 0 
-104 74 116 135 0 
-104 74 192 135 0 
-104 74 192 116 0 
-104 -192 -116 -135 0 
-104 -74 -116 -135 0 
-104 -74 -192 -135 0 
-104 -74 -192 -116 0 
-105 84 26 182 0 
-105 131 26 182 0 
-105 131 84 182 0 
-105 131 84 26 0 
-105 -84 -26 -182 0 
-105 -131 -26 -182 0 
-105 -131 -84 -182 0 
-105 -131 -84 -26 0 
-153 198 14 51 0 
-153 106 14 51 0 
-153 106 198 51 0 
-153 106 198 14 0 
-153 -198 -14 -51 0 
-153 -106 -14 -51 0 
-153 -106 -198 -51 0 
-153 -106 -198 -14 0 
-150 49 121 113 0 
-150 86 121 113 0 
-150 86 49 113 0 
-150 86 49 121 0 
-150 -49 -121 -113 0 
-150 -86 -121 -113 0 
-150 -86 -49 -113 0 
-150 -86 -49 -121 0 
-22 1 145 0 
-22 169 145 0 
-22 169 1 0 
-22 -169 -1 -145 0 
-10 98 127 0 
-10 69 127 0 
-10 69 98 0 
-10 -69 -98 -127 0 
-19 56 137 80 0 
-19 115 137 80 0 
-19 115 56 80 0 
-19 115 56 137 0 
-19 -56 -137 -80 0 
-19 -115 -137 -80 0 
-19 -115 -56 -80 0 
-19 -115 -56 -137 0 
-72 27 126 17 0 
-72 60 126 17 0 
-72 60 27 17 0 
-72 60 27 126 0 
-72 -27 -126 -17 0 
-72 -60 -126 -17 0 
-72 -60 -27 -17 0 
-72 -60 -27 -126 0 
-64 50 187 0 
-64 109 187 0 
-64 109 50 0 
-64 -109 -50 -187 0 
-161 45 165 0 
-161 59 165 0 
-161 59 45 0 
-161 -59 -45 -165 0 
-1 155 163 57 0 
-1 22 163 57 0 
-1 22 155 57 0 
-1 22 155 163 0 
-1 -155 -163 -57 0 
-1 -22 -163 -57 0 
-1 -22 -155 -57 0 
-1 -22 -155 -163 0 
-98 83 125 92 0 
-98 10 125 92 0 
-98 10 83 92 0 
-98 10 83 125 0 
-98 -83 -125 -92 0 
-98 -10 -125 -92 0 
-98 -10 -83 -92 0 
-98 -10 -83 -125 0 
-63 56 115 0 
-63 31 115 0 
-63 31 56 0 
-63 -31 -56 -115 0 
-178 27 60 0 
-178 130 60 0 
-178 130 27 0 
-178 -130 -27 -60 0 
-106 103 153 175 0 
-106 54 153 175 0 
-106 54 103 175 0 
-106 54 103 153 0 
-106 -103 -153 -175 0 
-106 -54 -153 -175 0 
-106 -54 -103 -175 0 
-106 -54 -103 -153 0 
-86 197 150 128 0 
-86 188 150 128 0 
-86 188 197 128 0 
-86 188 197 150 0 
-86 -197 -150 -128 0 
-86 -188 -150 -128 0 
-86 -188 -197 -128 0 
-86 -188 -197 -150 0 
-85 90 123 0 
-85 28 123 0 
-85 28 90 0 
-85 -28 -90 -123 0 
-112 91 15 0 
-112 68 15 0 
-112 68 91 0 
-112 -68 -91 -15 0 
-145 57 87 0 
-145 22 87 0 
-145 22 57 0 
-145 -22 -57 -87 0 
-127 92 191 0 
-127 10 191 0 
-127 10 92 0 
-127 -10 -92 -191 0 
-75 79 146 0 
-75 90 146 0 
-75 90 79 0 
-75 -90 -79 -146 0 
-30 70 156 0 
-30 91 156 0 
-30 91 70 0 
-30 -91 -70 -156 0 
-6 133 74 48 0 
-6 119 74 48 0 
-6 119 133 48 0 
-6 119 133 74 0 
-6 -133 -74 -48 0 
-6 -119 -74 -48 0 
-6 -119 -133 -48 0 
-6 -119 -133 -74 0 
-143 102 131 185 0 
-143 118 131 185 0 
-143 118 102 185 0 
-143 118 102 131 0 
-143 -102 -131 -185 0 
-143 -118 -131 -185 0 
-143 -118 -102 -185 0 
-143 -118 -102 -131 0 
-21 167 54 162 0 
-21 179 54 162 0 
-21 179 167 162 0 
-21 179 167 54 0 
-21 -167 -54 -162 0 
-21 -179 -54 -162 0 
-21 -179 -167 -162 0 
-21 -179 -167 -54 0 
-29 93 188 124 0 
-29 180 188 124 0 
-29 180 93 124 0 
-29 180 93 188 0 
-29 -93 -188 -124 0 
-29 -180 -188 -124 0 
-29 -180 -93 -124 0 
-29 -180 -93 -188 0 
-101 54 175 0 
-101 162 175 0 
-101 162 54 0 
-101 -162 -54 -175 0 
-96 188 128 0 
-96 124 128 0 
-96 124 188 0 
-96 -124 -188 -128 0 
145 158 0 
-145 -158 0 
-56 174 19 0 
-56 63 19 0 
-56 63 174 0 
-56 -63 -174 -19 0 
-27 55 72 0 
-27 178 72 0 
-27 178 55 0 
-27 -178 -55 -72 0 
-135 104 138 149 0 
-135 172 138 149 0 
-135 172 104 149 0 
-135 172 104 138 0 
-135 -104 -138 -149 0 
-135 -172 -138 -149 0 
-135 -172 -104 -149 0 
-135 -172 -104 -138 0 
-182 105 32 183 0 
-182 36 32 183 0 
-182 36 105 183 0 
-182 36 105 32 0 
-182 -105 -32 -183 0 
-182 -36 -32 -183 0 
-182 -36 -105 -183 0 
-182 -36 -105 -32 0 
-114 79 7 99 0 
-114 146 7 99 0 
-114 146 79 99 0 
-114 146 79 7 0 
-114 -79 -7 -99 0 
-114 -146 -7 -99 0 
-114 -146 -79 -99 0 
-114 -146 -79 -7 0 
-8 70 44 176 0 
-8 156 44 176 0 
-8 156 70 176 0 
-8 156 70 44 0 
-8 -70 -44 -176 0 
-8 -156 -44 -176 0 
-8 -156 -70 -176 0 
-8 -156 -70 -44 0 
-115 63 19 148 0 
-115 97 19 148 0 
-115 97 63 148 0 
-115 97 63 19 0 
-115 -63 -19 -148 0 
-115 -97 -19 -148 0 
-115 -97 -63 -148 0 
-115 -97 -63 -19 0 
-60 178 72 62 0 
-60 200 72 62 0 
-60 200 178 62 0 
-60 200 178 72 0 
-60 -178 -72 -62 0 
-60 -200 -72 -62 0 
-60 -200 -178 -62 0 
-60 -200 -178 -72 0 
-109 186 64 168 0 
-109 14 64 168 0 
-109 14 186 168 0 
-109 14 186 64 0 
-109 -186 -64 -168 0 
-109 -14 -64 -168 0 
-109 -14 -186 -168 0 
-109 -14 -186 -64 0 
-59 20 161 193 0 
-59 121 161 193 0 
-59 121 20 193 0 
-59 121 20 161 0 
-59 -20 -161 -193 0 
-59 -121 -161 -193 0 
-59 -121 -20 -193 0 
-59 -121 -20 -161 0 
-79 170 114 0 
-79 75 114 0 
-79 75 170 0 
-79 -75 -170 -114 0 
-70 4 8 0 
-70 30 8 0 
-70 30 4 0 
-70 -30 -4 -8 0 
-90 75 181 0 
-90 85 181 0 
-90 85 75 0 
-90 -85 -75 -181 0 
-91 30 5 0 
-91 112 5 0 
-91 112 30 0 
-91 -112 -30 -5 0 
-51 153 189 0 
-51 175 189 0 
-51 175 153 0 
-51 -175 -153 -189 0 
-113 150 141 0 
-113 128 141 0 
-113 128 150 0 
-113 -128 -150 -141 0 
-171 166 119 23 0 
-171 136 119 23 0 
-171 136 166 23 0 
-171 136 166 119 0 
-171 -166 -119 -23 0 
-171 -136 -119 -23 0 
-171 -136 -166 -23 0 
-171 -136 -166 -119 0 
-18 140 118 73 0 
-18 37 118 73 0 
-18 37 140 73 0 
-18 37 140 118 0 
-18 -140 -118 -73 0 
-18 -37 -118 -73 0 
-18 -37 -140 -73 0 
-18 -37 -140 -118 0 
-119 66 6 160 0 
-119 171 6 160 0 
-119 171 66 160 0 
-119 171 66 6 0 
-119 -66 -6 -160 0 
-119 -171 -6 -160 0 
-119 -171 -66 -160 0 
-119 -171 -66 -6 0 
-118 47 143 94 0 
-118 18 143 94 0 
-118 18 47 94 0 
-118 18 47 143 0 
-118 -47 -143 -94 0 
-118 -18 -143 -94 0 
-118 -18 -47 -94 0 
-118 -18 -47 -143 0 
-81 3 110 0 
-81 53 110 0 
-81 53 3 0 
-81 -53 -3 -110 0 
-129 71 111 0 
-129 40 111 0 
-129 40 71 0 
-129 -40 -71 -111 0 
-3 137 81 0 
-3 80 81 0 
-3 80 137 0 
-3 -80 -137 -81 0 
-71 126 129 0 
-71 17 129 0 
-71 17 126 0 
-71 -17 -126 -129 0 
-173 110 194 0 
-173 116 194 0 
-173 116 110 0 
-173 -116 -110 -194 0 
-107 111 76 0 
-107 26 76 0 
-107 26 111 0 
-107 -26 -111 -76 0 
-198 172 149 153 0 
-198 103 149 153 0 
-198 103 172 153 0 
-198 103 172 149 0 
-198 -172 -149 -153 0 
-198 -103 -149 -153 0 
-198 -103 -172 -153 0 
-198 -103 -172 -149 0 
-49 36 183 150 0 
-49 197 183 150 0 
-49 197 36 150 0 
-49 197 36 183 0 
-49 -36 -183 -150 0 
-49 -197 -183 -150 0 
-49 -197 -36 -150 0 
-49 -197 -36 -183 0 
-16 146 99 95 0 
-16 82 99 95 0 
-16 82 146 95 0 
-16 82 146 99 0 
-16 -146 -99 -95 0 
-16 -82 -99 -95 0 
-16 -82 -146 -95 0 
-16 -82 -146 -99 0 
-132 156 176 199 0 
-132 147 176 199 0 
-132 147 156 199 0 
-132 147 156 176 0 
-132 -156 -176 -199 0 
-132 -147 -176 -199 0 
-132 -147 -156 -199 0 
-132 -147 -156 -176 0 
-14 149 109 189 0 
-14 153 109 189 0 
-14 153 149 189 0 
-14 153 149 109 0 
-14 -149 -109 -189 0 
-14 -153 -109 -189 0 
-14 -153 -149 -189 0 
-14 -153 -149 -109 0 
-121 183 59 141 0 
-121 150 59 141 0 
-121 150 183 141 0 
-121 150 183 59 0 
-121 -183 -59 -141 0 
-121 -150 -59 -141 0 
-121 -150 -183 -141 0 
-121 -150 -183 -59 0 
-148 115 80 25 0 
-148 52 80 25 0 
-148 52 115 25 0 
-148 52 115 80 0 
-148 -115 -80 -25 0 
-148 -52 -80 -25 0 
-148 -52 -115 -25 0 
-148 -52 -115 -80 0 
-62 60 17 196 0 
-62 177 17 196 0 
-62 177 60 196 0 
-62 177 60 17 0 
-62 -60 -17 -196 0 
-62 -177 -17 -196 0 
-62 -177 -60 -196 0 
-62 -177 -60 -17 0 
-162 21 101 0 
-162 100 101 0 
-162 100 21 0 
-162 -100 -21 -101 0 
-124 29 96 0 
-124 58 96 0 
-124 58 29 0 
-124 -58 -29 -96 0 
-53 80 81 67 0 
-53 25 81 67 0 
-53 25 80 67 0 
-53 25 80 81 0 
-53 -80 -81 -67 0 
-53 -25 -81 -67 0 
-53 -25 -80 -67 0 
-53 -25 -80 -81 0 
-40 17 129 117 0 
-40 196 129 117 0 
-40 196 17 117 0 
-40 196 17 129 0 
-40 -17 -129 -117 0 
-40 -196 -129 -117 0 
-40 -196 -17 -117 0 
-40 -196 -17 -129 0 
-186 138 50 109 0 
-186 149 50 109 0 
-186 149 138 109 0 
-186 149 138 50 0 
-186 -138 -50 -109 0 
-186 -149 -50 -109 0 
-186 -149 -138 -109 0 
-186 -149 -138 -50 0 
-20 32 45 59 0 
-20 183 45 59 0 
-20 183 32 59 0 
-20 183 32 45 0 
-20 -32 -45 -59 0 
-20 -183 -45 -59 0 
-20 -183 -32 -59 0 
-20 -183 -32 -45 0 
-134 12 159 133 0 
-134 154 159 133 0 
-134 154 12 133 0 
-134 154 12 159 0 
-134 -12 -159 -133 0 
-134 -154 -159 -133 0 
-134 -154 -12 -133 0 
-134 -154 -12 -159 0 
-164 9 33 102 0 
-164 61 33 102 0 
-164 61 9 102 0 
-164 61 9 33 0 
-164 -9 -33 -102 0 
-164 -61 -33 -102 0 
-164 -61 -9 -102 0 
-164 -61 -9 -33 0 
-41 42 78 0 
-41 151 78 0 
-41 151 42 0 
-41 -151 -42 -78 0 
-46 2 39 0 
-46 122 39 0 
-46 122 2 0 
-46 -122 -2 -39 0 
-149 135 186 14 0 
-149 198 186 14 0 
-149 198 135 14 0 
-149 198 135 186 0 
-149 -135 -186 -14 0 
-149 -198 -186 -14 0 
-149 -198 -135 -14 0 
-149 -198 -135 -186 0 
-183 182 20 121 0 
-183 49 20 121 0 
-183 49 182 121 0 
-183 49 182 20 0 
-183 -182 -20 -121 0 
-183 -49 -20 -121 0 
-183 -49 -182 -121 0 
-183 -49 -182 -20 0 
-142 11 136 155 0 
-142 195 136 155 0 
-142 195 11 155 0 
-142 195 11 136 0 
-142 -11 -136 -155 0 
-142 -195 -136 -155 0 
-142 -195 -11 -155 0 
-142 -195 -11 -136 0 
-65 43 37 83 0 
-65 144 37 83 0 
-65 144 43 83 0 
-65 144 43 37 0 
-65 -43 -37 -83 0 
-65 -144 -37 -83 0 
-65 -144 -43 -83 0 
-65 -144 -43 -37 0 
-189 14 168 0 
-189 51 168 0 
-189 51 14 0 
-189 -51 -14 -168 0 
-141 121 193 0 
-141 113 193 0 
-141 113 121 0 
-141 -113 -121 -193 0 
89 185 49 86 0 
-49 -86 0 
-185 -86 0 
-185 -49 0 
-89 -86 0 
-89 -49 0 
-89 -185 0 
-155 142 35 1 0 
-155 169 35 1 0 
-155 169 142 1 0 
-155 169 142 35 0 
-155 -142 -35 -1 0 
-155 -169 -35 -1 0 
-155 -169 -142 -1 0 
-155 -169 -142 -35 0 
-83 65 13 98 0 
-83 69 13 98 0 
-83 69 65 98 0 
-83 69 65 13 0 
-83 -65 -13 -98 0 
-83 -69 -13 -98 0 
-83 -69 -65 -98 0 
-83 -69 -65 -13 0 
-12 7 52 134 0 
-12 99 52 134 0 
-12 99 7 134 0 
-12 99 7 52 0 
-12 -7 -52 -134 0 
-12 -99 -52 -134 0 
-12 -99 -7 -134 0 
-12 -99 -7 -52 0 
-9 44 177 164 0 
-9 176 177 164 0 
-9 176 44 164 0 
-9 176 44 177 0 
-9 -44 -177 -164 0 
-9 -176 -177 -164 0 
-9 -176 -44 -164 0 
-9 -176 -44 -177 0 
-24 123 82 42 0 
-24 151 82 42 0 
-24 151 123 42 0 
-24 151 123 82 0 
-24 -123 -82 -42 0 
-24 -151 -82 -42 0 
-24 -151 -123 -42 0 
-24 -151 -123 -82 0 
-184 15 147 2 0 
-184 122 147 2 0 
-184 122 15 2 0 
-184 122 15 147 0 
-184 -15 -147 -2 0 
-184 -122 -147 -2 0 
-184 -122 -15 -2 0 
-184 -122 -15 -147 0 
-137 174 3 0 
-137 19 3 0 
-137 19 174 0 
-137 -19 -174 -3 0 
-126 55 71 0 
-126 72 71 0 
-126 72 55 0 
-126 -72 -55 -71 0 
-181 90 146 82 0 
-181 123 146 82 0 
-181 123 90 82 0 
-181 123 90 146 0 
-181 -90 -146 -82 0 
-181 -123 -146 -82 0 
-181 -123 -90 -82 0 
-181 -123 -90 -146 0 
-5 91 156 147 0 
-5 15 156 147 0 
-5 15 91 147 0 
-5 15 91 156 0 
-5 -91 -156 -147 0 
-5 -15 -156 -147 0 
-5 -15 -91 -147 0 
-5 -15 -91 -156 0 
-158 57 100 0 
-158 87 100 0 
-158 87 57 0 
-158 -87 -57 -100 0 
-88 92 58 0 
-88 191 58 0 
-88 191 92 0 
-88 -191 -92 -58 0 
-52 97 148 159 0 
-52 12 148 159 0 
-52 12 97 159 0 
-52 12 97 148 0 
-52 -97 -148 -159 0 
-52 -12 -148 -159 0 
-52 -12 -97 -159 0 
-52 -12 -97 -148 0 
-177 200 62 33 0 
-177 9 62 33 0 
-177 9 200 33 0 
-177 9 200 62 0 
-177 -200 -62 -33 0 
-177 -9 -62 -33 0 
-177 -9 -200 -33 0 
-177 -9 -200 -62 0 
-57 1 179 158 0 
-57 145 179 158 0 
-57 145 1 158 0 
-57 145 1 179 0 
-57 -1 -179 -158 0 
-57 -145 -179 -158 0 
-57 -145 -1 -158 0 
-57 -145 -1 -179 0 
-92 98 180 88 0 
-92 127 180 88 0 
-92 127 98 88 0 
-92 127 98 180 0 
-92 -98 -180 -88 0 
-92 -127 -180 -88 0 
-92 -127 -98 -88 0 
-92 -127 -98 -180 0 
-38 159 192 74 0 
-38 133 192 74 0 
-38 133 159 74 0 
-38 133 159 192 0 
-38 -159 -192 -74 0 
-38 -133 -192 -74 0 
-38 -133 -159 -74 0 
-38 -133 -159 -192 0 
-34 33 84 131 0 
-34 102 84 131 0 
-34 102 33 131 0 
-34 102 33 84 0 
-34 -33 -84 -131 0 
-34 -102 -84 -131 0 
-34 -102 -33 -131 0 
-34 -102 -33 -84 0 
